351,406
425,489
611,850
681,826
245,723
385,452
351,406
482,342
494,311
681,-14
746,-8
773,121
755,178
681,166
773,121
803,166
755,178
629,334
601,366
1066,467
1006,457
629,334
482,342
425,489
470,697
667,494
